RAW/CMTT/fspd-long/CMT9T.vrp_seed-8.out
1162.547044	176.96	325.976
