RAW/CMTT/fspd-long/CMT9T.vrp_seed-8.sol
Route #1: 103 90 71 123 124 33 72 91 45 15 52 108
Route #2: 81 60 8 140 82 31 28 80 120 1 119 32
Route #3: 38 62 9 34 74 75 105 30 104 49 76
Route #4: 98 97 86 43 99 114 113 26
Route #5: 102 6 57 23 69 7 61 112 48 138 27 77
Route #6: 122 125 106 73 117 89 39 54 10 5
Route #7: 46 139 47 56 146 149 4 144 12
Route #8: 63 17 147 92 42 93 65 107 44 137 37
Route #9: 68 132 24 96 95 25 58 14 133 110 18
Route #10: 51 22 70 116 59 20 131 83 2 100
Route #11: 55 134 67 13 136 40 88 64 150 145
Route #12: 78 50 130 118 21 79 29 129 53 127 16 126 11
Route #13: 109 143 135 111 66 41 94 19 141 148 87 142
Route #14: 101 3 121 115 36 85 35 84 128
Cost 1162.547044